VRPTWMS/instances/mip/freight/5/N5-C_DV10-C_SV50_F12_10_No_1.lp
\ N5-C_DV10-C_SV50_F12_10

Minimize
  1.41 x_d0_c1 + 1.41 z_d0_c1 + 21.54 x_d0_c2 + 21.54 z_d0_c2 + 13.04 x_d0_c3 + 13.04 z_d0_c3 + 13.93 x_d0_c4 + 13.93 z_d0_c4 + 5.0 x_d0_c5 + 5.0 z_d0_c5 + 21.02 x_c1_c2 + 21.02 x_c2_c1 + 21.02 z_c1_c2 + 21.02 z_c2_c1 + 14.42 x_c1_c3 + 14.42 x_c3_c1 + 14.42 z_c1_c3 + 14.42 z_c3_c1 + 13.42 x_c1_c4 + 13.42 x_c4_c1 + 13.42 z_c1_c4 + 13.42 z_c4_c1 + 4.12 x_c1_c5 + 4.12 x_c5_c1 + 4.12 z_c1_c5 + 4.12 z_c5_c1 + 27.17 x_c2_c3 + 27.17 x_c3_c2 + 27.17 z_c2_c3 + 27.17 z_c3_c2 + 32.65 x_c2_c4 + 32.65 x_c4_c2 + 32.65 z_c2_c4 + 32.65 z_c4_c2 + 23.85 x_c2_c5 + 23.85 x_c5_c2 + 23.85 z_c2_c5 + 23.85 z_c5_c2 + 24.08 x_c3_c4 + 24.08 x_c4_c3 + 24.08 z_c3_c4 + 24.08 z_c4_c3 + 17.46 x_c3_c5 + 17.46 x_c5_c3 + 17.46 z_c3_c5 + 17.46 z_c5_c3 + 9.43 x_c4_c5 + 9.43 x_c5_c4 + 9.43 z_c4_c5 + 9.43 z_c5_c4 + 1.41 x_c1_dN + 1.41 z_c1_dN + 21.54 x_c2_dN + 21.54 z_c2_dN + 13.04 x_c3_dN + 13.04 z_c3_dN + 13.93 x_c4_dN + 13.93 z_c4_dN + 5.0 x_c5_dN + 5.0 z_c5_dN + 1000.0 x_d0_c1 + 1000.0 z_d0_c1 + 1000.0 x_d0_c2 + 1000.0 z_d0_c2 + 1000.0 x_d0_c3 + 1000.0 z_d0_c3 + 1000.0 x_d0_c4 + 1000.0 z_d0_c4 + 1000.0 x_d0_c5 + 1000.0 z_d0_c5
Subject To
  Successor_DV_c1: x_c1_c2 + x_c1_c3 + x_c1_c4 + x_c1_c5 + x_c1_dN = 1
  Successor_DV_c2: x_c2_c1 + x_c2_c3 + x_c2_c4 + x_c2_c5 + x_c2_dN = 1
  Successor_DV_c3: x_c3_c1 + x_c3_c2 + x_c3_c4 + x_c3_c5 + x_c3_dN = 1
  Successor_DV_c4: x_c4_c1 + x_c4_c2 + x_c4_c3 + x_c4_c5 + x_c4_dN = 1
  Successor_DV_c5: x_c5_c1 + x_c5_c2 + x_c5_c3 + x_c5_c4 + x_c5_dN = 1
  Successor_SV_c1: z_c1_c2 + z_c1_c3 + z_c1_c4 + z_c1_c5 + z_c1_dN <= 1
  Successor_SV_c2: z_c2_c1 + z_c2_c3 + z_c2_c4 + z_c2_c5 + z_c2_dN <= 1
  Successor_SV_c3: z_c3_c1 + z_c3_c2 + z_c3_c4 + z_c3_c5 + z_c3_dN <= 1
  Successor_SV_c4: z_c4_c1 + z_c4_c2 + z_c4_c3 + z_c4_c5 + z_c4_dN <= 1
  Successor_SV_c5: z_c5_c1 + z_c5_c2 + z_c5_c3 + z_c5_c4 + z_c5_dN <= 1
  Flow_DV_c1: x_d0_c1 + x_c2_c1 + x_c3_c1 + x_c4_c1 + x_c5_c1 - x_c1_dN - x_c1_c2 - x_c1_c3 - x_c1_c4 - x_c1_c5 = 0
  Flow_DV_c2: x_d0_c2 + x_c1_c2 + x_c3_c2 + x_c4_c2 + x_c5_c2 - x_c2_dN - x_c2_c1 - x_c2_c3 - x_c2_c4 - x_c2_c5 = 0
  Flow_DV_c3: x_d0_c3 + x_c1_c3 + x_c2_c3 + x_c4_c3 + x_c5_c3 - x_c3_dN - x_c3_c1 - x_c3_c2 - x_c3_c4 - x_c3_c5 = 0
  Flow_DV_c4: x_d0_c4 + x_c1_c4 + x_c2_c4 + x_c3_c4 + x_c5_c4 - x_c4_dN - x_c4_c1 - x_c4_c2 - x_c4_c3 - x_c4_c5 = 0
  Flow_DV_c5: x_d0_c5 + x_c1_c5 + x_c2_c5 + x_c3_c5 + x_c4_c5 - x_c5_dN - x_c5_c1 - x_c5_c2 - x_c5_c3 - x_c5_c4 = 0
  Flow_SV_c1: z_d0_c1 + z_c2_c1 + z_c3_c1 + z_c4_c1 + z_c5_c1 - z_c1_dN - z_c1_c2 - z_c1_c3 - z_c1_c4 - z_c1_c5 = 0
  Flow_SV_c2: z_d0_c2 + z_c1_c2 + z_c3_c2 + z_c4_c2 + z_c5_c2 - z_c2_dN - z_c2_c1 - z_c2_c3 - z_c2_c4 - z_c2_c5 = 0
  Flow_SV_c3: z_d0_c3 + z_c1_c3 + z_c2_c3 + z_c4_c3 + z_c5_c3 - z_c3_dN - z_c3_c1 - z_c3_c2 - z_c3_c4 - z_c3_c5 = 0
  Flow_SV_c4: z_d0_c4 + z_c1_c4 + z_c2_c4 + z_c3_c4 + z_c5_c4 - z_c4_dN - z_c4_c1 - z_c4_c2 - z_c4_c3 - z_c4_c5 = 0
  Flow_SV_c5: z_d0_c5 + z_c1_c5 + z_c2_c5 + z_c3_c5 + z_c4_c5 - z_c5_dN - z_c5_c1 - z_c5_c2 - z_c5_c3 - z_c5_c4 = 0
  travelDV_d0_c1: tauD_d0 - tauD_c1 + 100.3525 x_d0_c1 <= 100.0
  travelDV_d0_c2: tauD_d0 - tauD_c2 + 105.385 x_d0_c2 <= 100.0
  travelDV_d0_c3: tauD_d0 - tauD_c3 + 103.26 x_d0_c3 <= 100.0
  travelDV_d0_c4: tauD_d0 - tauD_c4 + 103.4825 x_d0_c4 <= 100.0
  travelDV_d0_c5: tauD_d0 - tauD_c5 + 101.25 x_d0_c5 <= 100.0
  travelDV_c1_c2: tauD_c1 - tauD_c2 + 108.255 x_c1_c2 + 8.0 p_1 <= 100.0
  travelDV_c1_c3: tauD_c1 - tauD_c3 + 106.605 x_c1_c3 + 8.0 p_1 <= 100.0
  travelDV_c1_c4: tauD_c1 - tauD_c4 + 106.355 x_c1_c4 + 8.0 p_1 <= 100.0
  travelDV_c1_c5: tauD_c1 - tauD_c5 + 104.03 x_c1_c5 + 8.0 p_1 <= 100.0
  travelDV_c2_c1: tauD_c2 - tauD_c1 + 108.255 x_c2_c1 + 8.0 p_2 <= 100.0
  travelDV_c2_c3: tauD_c2 - tauD_c3 + 109.7925 x_c2_c3 + 8.0 p_2 <= 100.0
  travelDV_c2_c4: tauD_c2 - tauD_c4 + 111.1625 x_c2_c4 + 8.0 p_2 <= 100.0
  travelDV_c2_c5: tauD_c2 - tauD_c5 + 108.9625 x_c2_c5 + 8.0 p_2 <= 100.0
  travelDV_c3_c1: tauD_c3 - tauD_c1 + 110.605 x_c3_c1 + 8.0 p_3 <= 100.0
  travelDV_c3_c2: tauD_c3 - tauD_c2 + 113.7925 x_c3_c2 + 8.0 p_3 <= 100.0
  travelDV_c3_c4: tauD_c3 - tauD_c4 + 113.02 x_c3_c4 + 8.0 p_3 <= 100.0
  travelDV_c3_c5: tauD_c3 - tauD_c5 + 111.365 x_c3_c5 + 8.0 p_3 <= 100.0
  travelDV_c4_c1: tauD_c4 - tauD_c1 + 112.355 x_c4_c1 + 8.0 p_4 <= 100.0
  travelDV_c4_c2: tauD_c4 - tauD_c2 + 117.1625 x_c4_c2 + 8.0 p_4 <= 100.0
  travelDV_c4_c3: tauD_c4 - tauD_c3 + 115.02 x_c4_c3 + 8.0 p_4 <= 100.0
  travelDV_c4_c5: tauD_c4 - tauD_c5 + 111.3575 x_c4_c5 + 8.0 p_4 <= 100.0
  travelDV_c5_c1: tauD_c5 - tauD_c1 + 107.03 x_c5_c1 + 8.0 p_5 <= 100.0
  travelDV_c5_c2: tauD_c5 - tauD_c2 + 111.9625 x_c5_c2 + 8.0 p_5 <= 100.0
  travelDV_c5_c3: tauD_c5 - tauD_c3 + 110.365 x_c5_c3 + 8.0 p_5 <= 100.0
  travelDV_c5_c4: tauD_c5 - tauD_c4 + 108.3575 x_c5_c4 + 8.0 p_5 <= 100.0
  TravelSV_d0_c1: tauS_d0 - tauS_c1 + 100.0 z_d0_c1 <= 99.6475
  TravelSV_d0_c2: tauS_d0 - tauS_c2 + 100.0 z_d0_c2 <= 94.615
  TravelSV_d0_c3: tauS_d0 - tauS_c3 + 100.0 z_d0_c3 <= 96.74
  TravelSV_d0_c4: tauS_d0 - tauS_c4 + 100.0 z_d0_c4 <= 96.5175
  TravelSV_d0_c5: tauS_d0 - tauS_c5 + 100.0 z_d0_c5 <= 98.75
  TravelSV_d0_dN: tauS_d0 - tauS_dN + 100.0 z_d0_dN <= 100.0
  TravelSV_c1_c2: tauS_c1 - tauS_c2 + 100.0 z_c1_c2 <= 86.745
  TravelSV_c1_c3: tauS_c1 - tauS_c3 + 100.0 z_c1_c3 <= 88.395
  TravelSV_c1_c4: tauS_c1 - tauS_c4 + 100.0 z_c1_c4 <= 88.645
  TravelSV_c1_c5: tauS_c1 - tauS_c5 + 100.0 z_c1_c5 <= 90.97
  TravelSV_c1_dN: tauS_c1 - tauS_dN + 100.0 z_c1_dN <= 91.6475
  TravelSV_c2_c1: tauS_c2 - tauS_c1 + 100.0 z_c2_c1 <= 86.745
  TravelSV_c2_c3: tauS_c2 - tauS_c3 + 100.0 z_c2_c3 <= 85.2075
  TravelSV_c2_c4: tauS_c2 - tauS_c4 + 100.0 z_c2_c4 <= 83.8375
  TravelSV_c2_c5: tauS_c2 - tauS_c5 + 100.0 z_c2_c5 <= 86.0375
  TravelSV_c2_dN: tauS_c2 - tauS_dN + 100.0 z_c2_dN <= 86.615
  TravelSV_c3_c1: tauS_c3 - tauS_c1 + 100.0 z_c3_c1 <= 88.395
  TravelSV_c3_c2: tauS_c3 - tauS_c2 + 100.0 z_c3_c2 <= 85.2075
  TravelSV_c3_c4: tauS_c3 - tauS_c4 + 100.0 z_c3_c4 <= 85.98
  TravelSV_c3_c5: tauS_c3 - tauS_c5 + 100.0 z_c3_c5 <= 87.635
  TravelSV_c3_dN: tauS_c3 - tauS_dN + 100.0 z_c3_dN <= 88.74
  TravelSV_c4_c1: tauS_c4 - tauS_c1 + 100.0 z_c4_c1 <= 88.645
  TravelSV_c4_c2: tauS_c4 - tauS_c2 + 100.0 z_c4_c2 <= 83.8375
  TravelSV_c4_c3: tauS_c4 - tauS_c3 + 100.0 z_c4_c3 <= 85.98
  TravelSV_c4_c5: tauS_c4 - tauS_c5 + 100.0 z_c4_c5 <= 89.6425
  TravelSV_c4_dN: tauS_c4 - tauS_dN + 100.0 z_c4_dN <= 88.5175
  TravelSV_c5_c1: tauS_c5 - tauS_c1 + 100.0 z_c5_c1 <= 90.97
  TravelSV_c5_c2: tauS_c5 - tauS_c2 + 100.0 z_c5_c2 <= 86.0375
  TravelSV_c5_c3: tauS_c5 - tauS_c3 + 100.0 z_c5_c3 <= 87.635
  TravelSV_c5_c4: tauS_c5 - tauS_c4 + 100.0 z_c5_c4 <= 89.6425
  TravelSV_c5_dN: tauS_c5 - tauS_dN + 100.0 z_c5_dN <= 90.75
  time_window_c1_e: tauD_c1 + 8.0 o_1 >= 0.0
  time_window_c1_l: tauD_c1 + 8.0 o_1 <= 100.0
  time_window_c2_e: tauD_c2 + 8.0 o_2 >= 0.0
  time_window_c2_l: tauD_c2 + 8.0 o_2 <= 100.0
  time_window_c3_e: tauD_c3 + 8.0 o_3 >= 50.0
  time_window_c3_l: tauD_c3 + 8.0 o_3 <= 65.0
  time_window_c4_e: tauD_c4 + 8.0 o_4 >= 5.0
  time_window_c4_l: tauD_c4 + 8.0 o_4 <= 20.0
  time_window_c5_e: tauD_c5 + 8.0 o_5 >= 65.0
  time_window_c5_l: tauD_c5 + 8.0 o_5 <= 80.0
  SyncA_c1_c2_c2: 3.0 o_1 + 100.0 x_c1_c2 - tauD_c2 - 5.255 z_c1_c2 + [ tauS_c2 * z_c1_c2 ] <= 94.745
  SyncA_c1_c2_c3: 3.0 o_1 + 100.0 x_c1_c2 - tauD_c2 - 3.605 z_c1_c3 + [ tauS_c3 * z_c1_c3 ] <= 94.745
  SyncA_c1_c2_c4: 3.0 o_1 + 100.0 x_c1_c2 - tauD_c2 - 3.355 z_c1_c4 + [ tauS_c4 * z_c1_c4 ] <= 94.745
  SyncA_c1_c2_c5: 3.0 o_1 + 100.0 x_c1_c2 - tauD_c2 - 1.03 z_c1_c5 + [ tauS_c5 * z_c1_c5 ] <= 94.745
  SyncA_c1_c2_dN: 3.0 o_1 + 100.0 x_c1_c2 - tauD_c2 - 0.3525 z_c1_dN + [ tauS_dN * z_c1_dN ] <= 94.745
  SyncA_c1_c3_c2: 3.0 o_1 + 100.0 x_c1_c3 - tauD_c3 - 5.255 z_c1_c2 + [ tauS_c2 * z_c1_c2 ] <= 96.395
  SyncA_c1_c3_c3: 3.0 o_1 + 100.0 x_c1_c3 - tauD_c3 - 3.605 z_c1_c3 + [ tauS_c3 * z_c1_c3 ] <= 96.395
  SyncA_c1_c3_c4: 3.0 o_1 + 100.0 x_c1_c3 - tauD_c3 - 3.355 z_c1_c4 + [ tauS_c4 * z_c1_c4 ] <= 96.395
  SyncA_c1_c3_c5: 3.0 o_1 + 100.0 x_c1_c3 - tauD_c3 - 1.03 z_c1_c5 + [ tauS_c5 * z_c1_c5 ] <= 96.395
  SyncA_c1_c3_dN: 3.0 o_1 + 100.0 x_c1_c3 - tauD_c3 - 0.3525 z_c1_dN + [ tauS_dN * z_c1_dN ] <= 96.395
  SyncA_c1_c4_c2: 3.0 o_1 + 100.0 x_c1_c4 - tauD_c4 - 5.255 z_c1_c2 + [ tauS_c2 * z_c1_c2 ] <= 96.645
  SyncA_c1_c4_c3: 3.0 o_1 + 100.0 x_c1_c4 - tauD_c4 - 3.605 z_c1_c3 + [ tauS_c3 * z_c1_c3 ] <= 96.645
  SyncA_c1_c4_c4: 3.0 o_1 + 100.0 x_c1_c4 - tauD_c4 - 3.355 z_c1_c4 + [ tauS_c4 * z_c1_c4 ] <= 96.645
  SyncA_c1_c4_c5: 3.0 o_1 + 100.0 x_c1_c4 - tauD_c4 - 1.03 z_c1_c5 + [ tauS_c5 * z_c1_c5 ] <= 96.645
  SyncA_c1_c4_dN: 3.0 o_1 + 100.0 x_c1_c4 - tauD_c4 - 0.3525 z_c1_dN + [ tauS_dN * z_c1_dN ] <= 96.645
  SyncA_c1_c5_c2: 3.0 o_1 + 100.0 x_c1_c5 - tauD_c5 - 5.255 z_c1_c2 + [ tauS_c2 * z_c1_c2 ] <= 98.97
  SyncA_c1_c5_c3: 3.0 o_1 + 100.0 x_c1_c5 - tauD_c5 - 3.605 z_c1_c3 + [ tauS_c3 * z_c1_c3 ] <= 98.97
  SyncA_c1_c5_c4: 3.0 o_1 + 100.0 x_c1_c5 - tauD_c5 - 3.355 z_c1_c4 + [ tauS_c4 * z_c1_c4 ] <= 98.97
  SyncA_c1_c5_c5: 3.0 o_1 + 100.0 x_c1_c5 - tauD_c5 - 1.03 z_c1_c5 + [ tauS_c5 * z_c1_c5 ] <= 98.97
  SyncA_c1_c5_dN: 3.0 o_1 + 100.0 x_c1_c5 - tauD_c5 - 0.3525 z_c1_dN + [ tauS_dN * z_c1_dN ] <= 98.97
  SyncA_c1_dN_c2: 3.0 o_1 + 100.0 x_c1_dN - tauD_dN - 5.255 z_c1_c2 + [ tauS_c2 * z_c1_c2 ] <= 99.6475
  SyncA_c1_dN_c3: 3.0 o_1 + 100.0 x_c1_dN - tauD_dN - 3.605 z_c1_c3 + [ tauS_c3 * z_c1_c3 ] <= 99.6475
  SyncA_c1_dN_c4: 3.0 o_1 + 100.0 x_c1_dN - tauD_dN - 3.355 z_c1_c4 + [ tauS_c4 * z_c1_c4 ] <= 99.6475
  SyncA_c1_dN_c5: 3.0 o_1 + 100.0 x_c1_dN - tauD_dN - 1.03 z_c1_c5 + [ tauS_c5 * z_c1_c5 ] <= 99.6475
  SyncA_c1_dN_dN: 3.0 o_1 + 100.0 x_c1_dN - tauD_dN - 0.3525 z_c1_dN + [ tauS_dN * z_c1_dN ] <= 99.6475
  SyncA_c2_c1_c1: 3.0 o_2 + 100.0 x_c2_c1 - tauD_c1 - 5.255 z_c2_c1 + [ tauS_c1 * z_c2_c1 ] <= 94.745
  SyncA_c2_c1_c3: 3.0 o_2 + 100.0 x_c2_c1 - tauD_c1 - 6.7925 z_c2_c3 + [ tauS_c3 * z_c2_c3 ] <= 94.745
  SyncA_c2_c1_c4: 3.0 o_2 + 100.0 x_c2_c1 - tauD_c1 - 8.1625 z_c2_c4 + [ tauS_c4 * z_c2_c4 ] <= 94.745
  SyncA_c2_c1_c5: 3.0 o_2 + 100.0 x_c2_c1 - tauD_c1 - 5.9625 z_c2_c5 + [ tauS_c5 * z_c2_c5 ] <= 94.745
  SyncA_c2_c1_dN: 3.0 o_2 + 100.0 x_c2_c1 - tauD_c1 - 5.385 z_c2_dN + [ tauS_dN * z_c2_dN ] <= 94.745
  SyncA_c2_c3_c1: 3.0 o_2 + 100.0 x_c2_c3 - tauD_c3 - 5.255 z_c2_c1 + [ tauS_c1 * z_c2_c1 ] <= 93.2075
  SyncA_c2_c3_c3: 3.0 o_2 + 100.0 x_c2_c3 - tauD_c3 - 6.7925 z_c2_c3 + [ tauS_c3 * z_c2_c3 ] <= 93.2075
  SyncA_c2_c3_c4: 3.0 o_2 + 100.0 x_c2_c3 - tauD_c3 - 8.1625 z_c2_c4 + [ tauS_c4 * z_c2_c4 ] <= 93.2075
  SyncA_c2_c3_c5: 3.0 o_2 + 100.0 x_c2_c3 - tauD_c3 - 5.9625 z_c2_c5 + [ tauS_c5 * z_c2_c5 ] <= 93.2075
  SyncA_c2_c3_dN: 3.0 o_2 + 100.0 x_c2_c3 - tauD_c3 - 5.385 z_c2_dN + [ tauS_dN * z_c2_dN ] <= 93.2075
  SyncA_c2_c4_c1: 3.0 o_2 + 100.0 x_c2_c4 - tauD_c4 - 5.255 z_c2_c1 + [ tauS_c1 * z_c2_c1 ] <= 91.8375
  SyncA_c2_c4_c3: 3.0 o_2 + 100.0 x_c2_c4 - tauD_c4 - 6.7925 z_c2_c3 + [ tauS_c3 * z_c2_c3 ] <= 91.8375
  SyncA_c2_c4_c4: 3.0 o_2 + 100.0 x_c2_c4 - tauD_c4 - 8.1625 z_c2_c4 + [ tauS_c4 * z_c2_c4 ] <= 91.8375
  SyncA_c2_c4_c5: 3.0 o_2 + 100.0 x_c2_c4 - tauD_c4 - 5.9625 z_c2_c5 + [ tauS_c5 * z_c2_c5 ] <= 91.8375
  SyncA_c2_c4_dN: 3.0 o_2 + 100.0 x_c2_c4 - tauD_c4 - 5.385 z_c2_dN + [ tauS_dN * z_c2_dN ] <= 91.8375
  SyncA_c2_c5_c1: 3.0 o_2 + 100.0 x_c2_c5 - tauD_c5 - 5.255 z_c2_c1 + [ tauS_c1 * z_c2_c1 ] <= 94.0375
  SyncA_c2_c5_c3: 3.0 o_2 + 100.0 x_c2_c5 - tauD_c5 - 6.7925 z_c2_c3 + [ tauS_c3 * z_c2_c3 ] <= 94.0375
  SyncA_c2_c5_c4: 3.0 o_2 + 100.0 x_c2_c5 - tauD_c5 - 8.1625 z_c2_c4 + [ tauS_c4 * z_c2_c4 ] <= 94.0375
  SyncA_c2_c5_c5: 3.0 o_2 + 100.0 x_c2_c5 - tauD_c5 - 5.9625 z_c2_c5 + [ tauS_c5 * z_c2_c5 ] <= 94.0375
  SyncA_c2_c5_dN: 3.0 o_2 + 100.0 x_c2_c5 - tauD_c5 - 5.385 z_c2_dN + [ tauS_dN * z_c2_dN ] <= 94.0375
  SyncA_c2_dN_c1: 3.0 o_2 + 100.0 x_c2_dN - tauD_dN - 5.255 z_c2_c1 + [ tauS_c1 * z_c2_c1 ] <= 94.615
  SyncA_c2_dN_c3: 3.0 o_2 + 100.0 x_c2_dN - tauD_dN - 6.7925 z_c2_c3 + [ tauS_c3 * z_c2_c3 ] <= 94.615
  SyncA_c2_dN_c4: 3.0 o_2 + 100.0 x_c2_dN - tauD_dN - 8.1625 z_c2_c4 + [ tauS_c4 * z_c2_c4 ] <= 94.615
  SyncA_c2_dN_c5: 3.0 o_2 + 100.0 x_c2_dN - tauD_dN - 5.9625 z_c2_c5 + [ tauS_c5 * z_c2_c5 ] <= 94.615
  SyncA_c2_dN_dN: 3.0 o_2 + 100.0 x_c2_dN - tauD_dN - 5.385 z_c2_dN + [ tauS_dN * z_c2_dN ] <= 94.615
  SyncA_c3_c1_c1: 7.0 o_3 + 100.0 x_c3_c1 - tauD_c1 - 3.605 z_c3_c1 + [ tauS_c1 * z_c3_c1 ] <= 96.395
  SyncA_c3_c1_c2: 7.0 o_3 + 100.0 x_c3_c1 - tauD_c1 - 6.7925 z_c3_c2 + [ tauS_c2 * z_c3_c2 ] <= 96.395
  SyncA_c3_c1_c4: 7.0 o_3 + 100.0 x_c3_c1 - tauD_c1 - 6.02 z_c3_c4 + [ tauS_c4 * z_c3_c4 ] <= 96.395
  SyncA_c3_c1_c5: 7.0 o_3 + 100.0 x_c3_c1 - tauD_c1 - 4.365 z_c3_c5 + [ tauS_c5 * z_c3_c5 ] <= 96.395
  SyncA_c3_c1_dN: 7.0 o_3 + 100.0 x_c3_c1 - tauD_c1 - 3.26 z_c3_dN + [ tauS_dN * z_c3_dN ] <= 96.395
  SyncA_c3_c2_c1: 7.0 o_3 + 100.0 x_c3_c2 - tauD_c2 - 3.605 z_c3_c1 + [ tauS_c1 * z_c3_c1 ] <= 93.2075
  SyncA_c3_c2_c2: 7.0 o_3 + 100.0 x_c3_c2 - tauD_c2 - 6.7925 z_c3_c2 + [ tauS_c2 * z_c3_c2 ] <= 93.2075
  SyncA_c3_c2_c4: 7.0 o_3 + 100.0 x_c3_c2 - tauD_c2 - 6.02 z_c3_c4 + [ tauS_c4 * z_c3_c4 ] <= 93.2075
  SyncA_c3_c2_c5: 7.0 o_3 + 100.0 x_c3_c2 - tauD_c2 - 4.365 z_c3_c5 + [ tauS_c5 * z_c3_c5 ] <= 93.2075
  SyncA_c3_c2_dN: 7.0 o_3 + 100.0 x_c3_c2 - tauD_c2 - 3.26 z_c3_dN + [ tauS_dN * z_c3_dN ] <= 93.2075
  SyncA_c3_c4_c1: 7.0 o_3 + 100.0 x_c3_c4 - tauD_c4 - 3.605 z_c3_c1 + [ tauS_c1 * z_c3_c1 ] <= 93.98
  SyncA_c3_c4_c2: 7.0 o_3 + 100.0 x_c3_c4 - tauD_c4 - 6.7925 z_c3_c2 + [ tauS_c2 * z_c3_c2 ] <= 93.98
  SyncA_c3_c4_c4: 7.0 o_3 + 100.0 x_c3_c4 - tauD_c4 - 6.02 z_c3_c4 + [ tauS_c4 * z_c3_c4 ] <= 93.98
  SyncA_c3_c4_c5: 7.0 o_3 + 100.0 x_c3_c4 - tauD_c4 - 4.365 z_c3_c5 + [ tauS_c5 * z_c3_c5 ] <= 93.98
  SyncA_c3_c4_dN: 7.0 o_3 + 100.0 x_c3_c4 - tauD_c4 - 3.26 z_c3_dN + [ tauS_dN * z_c3_dN ] <= 93.98
  SyncA_c3_c5_c1: 7.0 o_3 + 100.0 x_c3_c5 - tauD_c5 - 3.605 z_c3_c1 + [ tauS_c1 * z_c3_c1 ] <= 95.635
  SyncA_c3_c5_c2: 7.0 o_3 + 100.0 x_c3_c5 - tauD_c5 - 6.7925 z_c3_c2 + [ tauS_c2 * z_c3_c2 ] <= 95.635
  SyncA_c3_c5_c4: 7.0 o_3 + 100.0 x_c3_c5 - tauD_c5 - 6.02 z_c3_c4 + [ tauS_c4 * z_c3_c4 ] <= 95.635
  SyncA_c3_c5_c5: 7.0 o_3 + 100.0 x_c3_c5 - tauD_c5 - 4.365 z_c3_c5 + [ tauS_c5 * z_c3_c5 ] <= 95.635
  SyncA_c3_c5_dN: 7.0 o_3 + 100.0 x_c3_c5 - tauD_c5 - 3.26 z_c3_dN + [ tauS_dN * z_c3_dN ] <= 95.635
  SyncA_c3_dN_c1: 7.0 o_3 + 100.0 x_c3_dN - tauD_dN - 3.605 z_c3_c1 + [ tauS_c1 * z_c3_c1 ] <= 96.74
  SyncA_c3_dN_c2: 7.0 o_3 + 100.0 x_c3_dN - tauD_dN - 6.7925 z_c3_c2 + [ tauS_c2 * z_c3_c2 ] <= 96.74
  SyncA_c3_dN_c4: 7.0 o_3 + 100.0 x_c3_dN - tauD_dN - 6.02 z_c3_c4 + [ tauS_c4 * z_c3_c4 ] <= 96.74
  SyncA_c3_dN_c5: 7.0 o_3 + 100.0 x_c3_dN - tauD_dN - 4.365 z_c3_c5 + [ tauS_c5 * z_c3_c5 ] <= 96.74
  SyncA_c3_dN_dN: 7.0 o_3 + 100.0 x_c3_dN - tauD_dN - 3.26 z_c3_dN + [ tauS_dN * z_c3_dN ] <= 96.74
  SyncA_c4_c1_c1: 9.0 o_4 + 100.0 x_c4_c1 - tauD_c1 - 3.355 z_c4_c1 + [ tauS_c1 * z_c4_c1 ] <= 96.645
  SyncA_c4_c1_c2: 9.0 o_4 + 100.0 x_c4_c1 - tauD_c1 - 8.1625 z_c4_c2 + [ tauS_c2 * z_c4_c2 ] <= 96.645
  SyncA_c4_c1_c3: 9.0 o_4 + 100.0 x_c4_c1 - tauD_c1 - 6.02 z_c4_c3 + [ tauS_c3 * z_c4_c3 ] <= 96.645
  SyncA_c4_c1_c5: 9.0 o_4 + 100.0 x_c4_c1 - tauD_c1 - 2.3575 z_c4_c5 + [ tauS_c5 * z_c4_c5 ] <= 96.645
  SyncA_c4_c1_dN: 9.0 o_4 + 100.0 x_c4_c1 - tauD_c1 - 3.4825 z_c4_dN + [ tauS_dN * z_c4_dN ] <= 96.645
  SyncA_c4_c2_c1: 9.0 o_4 + 100.0 x_c4_c2 - tauD_c2 - 3.355 z_c4_c1 + [ tauS_c1 * z_c4_c1 ] <= 91.8375
  SyncA_c4_c2_c2: 9.0 o_4 + 100.0 x_c4_c2 - tauD_c2 - 8.1625 z_c4_c2 + [ tauS_c2 * z_c4_c2 ] <= 91.8375
  SyncA_c4_c2_c3: 9.0 o_4 + 100.0 x_c4_c2 - tauD_c2 - 6.02 z_c4_c3 + [ tauS_c3 * z_c4_c3 ] <= 91.8375
  SyncA_c4_c2_c5: 9.0 o_4 + 100.0 x_c4_c2 - tauD_c2 - 2.3575 z_c4_c5 + [ tauS_c5 * z_c4_c5 ] <= 91.8375
  SyncA_c4_c2_dN: 9.0 o_4 + 100.0 x_c4_c2 - tauD_c2 - 3.4825 z_c4_dN + [ tauS_dN * z_c4_dN ] <= 91.8375
  SyncA_c4_c3_c1: 9.0 o_4 + 100.0 x_c4_c3 - tauD_c3 - 3.355 z_c4_c1 + [ tauS_c1 * z_c4_c1 ] <= 93.98
  SyncA_c4_c3_c2: 9.0 o_4 + 100.0 x_c4_c3 - tauD_c3 - 8.1625 z_c4_c2 + [ tauS_c2 * z_c4_c2 ] <= 93.98
  SyncA_c4_c3_c3: 9.0 o_4 + 100.0 x_c4_c3 - tauD_c3 - 6.02 z_c4_c3 + [ tauS_c3 * z_c4_c3 ] <= 93.98
  SyncA_c4_c3_c5: 9.0 o_4 + 100.0 x_c4_c3 - tauD_c3 - 2.3575 z_c4_c5 + [ tauS_c5 * z_c4_c5 ] <= 93.98
  SyncA_c4_c3_dN: 9.0 o_4 + 100.0 x_c4_c3 - tauD_c3 - 3.4825 z_c4_dN + [ tauS_dN * z_c4_dN ] <= 93.98
  SyncA_c4_c5_c1: 9.0 o_4 + 100.0 x_c4_c5 - tauD_c5 - 3.355 z_c4_c1 + [ tauS_c1 * z_c4_c1 ] <= 97.6425
  SyncA_c4_c5_c2: 9.0 o_4 + 100.0 x_c4_c5 - tauD_c5 - 8.1625 z_c4_c2 + [ tauS_c2 * z_c4_c2 ] <= 97.6425
  SyncA_c4_c5_c3: 9.0 o_4 + 100.0 x_c4_c5 - tauD_c5 - 6.02 z_c4_c3 + [ tauS_c3 * z_c4_c3 ] <= 97.6425
  SyncA_c4_c5_c5: 9.0 o_4 + 100.0 x_c4_c5 - tauD_c5 - 2.3575 z_c4_c5 + [ tauS_c5 * z_c4_c5 ] <= 97.6425
  SyncA_c4_c5_dN: 9.0 o_4 + 100.0 x_c4_c5 - tauD_c5 - 3.4825 z_c4_dN + [ tauS_dN * z_c4_dN ] <= 97.6425
  SyncA_c4_dN_c1: 9.0 o_4 + 100.0 x_c4_dN - tauD_dN - 3.355 z_c4_c1 + [ tauS_c1 * z_c4_c1 ] <= 96.5175
  SyncA_c4_dN_c2: 9.0 o_4 + 100.0 x_c4_dN - tauD_dN - 8.1625 z_c4_c2 + [ tauS_c2 * z_c4_c2 ] <= 96.5175
  SyncA_c4_dN_c3: 9.0 o_4 + 100.0 x_c4_dN - tauD_dN - 6.02 z_c4_c3 + [ tauS_c3 * z_c4_c3 ] <= 96.5175
  SyncA_c4_dN_c5: 9.0 o_4 + 100.0 x_c4_dN - tauD_dN - 2.3575 z_c4_c5 + [ tauS_c5 * z_c4_c5 ] <= 96.5175
  SyncA_c4_dN_dN: 9.0 o_4 + 100.0 x_c4_dN - tauD_dN - 3.4825 z_c4_dN + [ tauS_dN * z_c4_dN ] <= 96.5175
  SyncA_c5_c1_c1: 6.0 o_5 + 100.0 x_c5_c1 - tauD_c1 - 1.03 z_c5_c1 + [ tauS_c1 * z_c5_c1 ] <= 98.97
  SyncA_c5_c1_c2: 6.0 o_5 + 100.0 x_c5_c1 - tauD_c1 - 5.9625 z_c5_c2 + [ tauS_c2 * z_c5_c2 ] <= 98.97
  SyncA_c5_c1_c3: 6.0 o_5 + 100.0 x_c5_c1 - tauD_c1 - 4.365 z_c5_c3 + [ tauS_c3 * z_c5_c3 ] <= 98.97
  SyncA_c5_c1_c4: 6.0 o_5 + 100.0 x_c5_c1 - tauD_c1 - 2.3575 z_c5_c4 + [ tauS_c4 * z_c5_c4 ] <= 98.97
  SyncA_c5_c1_dN: 6.0 o_5 + 100.0 x_c5_c1 - tauD_c1 - 1.25 z_c5_dN + [ tauS_dN * z_c5_dN ] <= 98.97
  SyncA_c5_c2_c1: 6.0 o_5 + 100.0 x_c5_c2 - tauD_c2 - 1.03 z_c5_c1 + [ tauS_c1 * z_c5_c1 ] <= 94.0375
  SyncA_c5_c2_c2: 6.0 o_5 + 100.0 x_c5_c2 - tauD_c2 - 5.9625 z_c5_c2 + [ tauS_c2 * z_c5_c2 ] <= 94.0375
  SyncA_c5_c2_c3: 6.0 o_5 + 100.0 x_c5_c2 - tauD_c2 - 4.365 z_c5_c3 + [ tauS_c3 * z_c5_c3 ] <= 94.0375
  SyncA_c5_c2_c4: 6.0 o_5 + 100.0 x_c5_c2 - tauD_c2 - 2.3575 z_c5_c4 + [ tauS_c4 * z_c5_c4 ] <= 94.0375
  SyncA_c5_c2_dN: 6.0 o_5 + 100.0 x_c5_c2 - tauD_c2 - 1.25 z_c5_dN + [ tauS_dN * z_c5_dN ] <= 94.0375
  SyncA_c5_c3_c1: 6.0 o_5 + 100.0 x_c5_c3 - tauD_c3 - 1.03 z_c5_c1 + [ tauS_c1 * z_c5_c1 ] <= 95.635
  SyncA_c5_c3_c2: 6.0 o_5 + 100.0 x_c5_c3 - tauD_c3 - 5.9625 z_c5_c2 + [ tauS_c2 * z_c5_c2 ] <= 95.635
  SyncA_c5_c3_c3: 6.0 o_5 + 100.0 x_c5_c3 - tauD_c3 - 4.365 z_c5_c3 + [ tauS_c3 * z_c5_c3 ] <= 95.635
  SyncA_c5_c3_c4: 6.0 o_5 + 100.0 x_c5_c3 - tauD_c3 - 2.3575 z_c5_c4 + [ tauS_c4 * z_c5_c4 ] <= 95.635
  SyncA_c5_c3_dN: 6.0 o_5 + 100.0 x_c5_c3 - tauD_c3 - 1.25 z_c5_dN + [ tauS_dN * z_c5_dN ] <= 95.635
  SyncA_c5_c4_c1: 6.0 o_5 + 100.0 x_c5_c4 - tauD_c4 - 1.03 z_c5_c1 + [ tauS_c1 * z_c5_c1 ] <= 97.6425
  SyncA_c5_c4_c2: 6.0 o_5 + 100.0 x_c5_c4 - tauD_c4 - 5.9625 z_c5_c2 + [ tauS_c2 * z_c5_c2 ] <= 97.6425
  SyncA_c5_c4_c3: 6.0 o_5 + 100.0 x_c5_c4 - tauD_c4 - 4.365 z_c5_c3 + [ tauS_c3 * z_c5_c3 ] <= 97.6425
  SyncA_c5_c4_c4: 6.0 o_5 + 100.0 x_c5_c4 - tauD_c4 - 2.3575 z_c5_c4 + [ tauS_c4 * z_c5_c4 ] <= 97.6425
  SyncA_c5_c4_dN: 6.0 o_5 + 100.0 x_c5_c4 - tauD_c4 - 1.25 z_c5_dN + [ tauS_dN * z_c5_dN ] <= 97.6425
  SyncA_c5_dN_c1: 6.0 o_5 + 100.0 x_c5_dN - tauD_dN - 1.03 z_c5_c1 + [ tauS_c1 * z_c5_c1 ] <= 98.75
  SyncA_c5_dN_c2: 6.0 o_5 + 100.0 x_c5_dN - tauD_dN - 5.9625 z_c5_c2 + [ tauS_c2 * z_c5_c2 ] <= 98.75
  SyncA_c5_dN_c3: 6.0 o_5 + 100.0 x_c5_dN - tauD_dN - 4.365 z_c5_c3 + [ tauS_c3 * z_c5_c3 ] <= 98.75
  SyncA_c5_dN_c4: 6.0 o_5 + 100.0 x_c5_dN - tauD_dN - 2.3575 z_c5_c4 + [ tauS_c4 * z_c5_c4 ] <= 98.75
  SyncA_c5_dN_dN: 6.0 o_5 + 100.0 x_c5_dN - tauD_dN - 1.25 z_c5_dN + [ tauS_dN * z_c5_dN ] <= 98.75
  SVFirst_c1_c2: tauS_c2 - tauD_c1 + 3.0 o_1 - 100.0 z_c1_c2 >= -83.745
  SVFirst_c1_c3: tauS_c3 - tauD_c1 + 3.0 o_1 - 100.0 z_c1_c3 >= -85.395
  SVFirst_c1_c4: tauS_c4 - tauD_c1 + 3.0 o_1 - 100.0 z_c1_c4 >= -85.645
  SVFirst_c1_c5: tauS_c5 - tauD_c1 + 3.0 o_1 - 100.0 z_c1_c5 >= -87.97
  SVFirst_c1_dN:  tauS_dN - tauD_c1 + 3.0 o_1 - 100.0 z_c1_dN >= -88.64750000000001
  SVFirst_c2_c1: tauS_c1 - tauD_c2 + 3.0 o_2 - 100.0 z_c2_c1 >= -83.745
  SVFirst_c2_c3: tauS_c3 - tauD_c2 + 3.0 o_2 - 100.0 z_c2_c3 >= -82.2075
  SVFirst_c2_c4: tauS_c4 - tauD_c2 + 3.0 o_2 - 100.0 z_c2_c4 >= -80.8375
  SVFirst_c2_c5: tauS_c5 - tauD_c2 + 3.0 o_2 - 100.0 z_c2_c5 >= -83.0375
  SVFirst_c2_dN:  tauS_dN - tauD_c2 + 3.0 o_2 - 100.0 z_c2_dN >= -83.615
  SVFirst_c3_c1: tauS_c1 - tauD_c3 + 7.0 o_3 - 100.0 z_c3_c1 >= -81.395
  SVFirst_c3_c2: tauS_c2 - tauD_c3 + 7.0 o_3 - 100.0 z_c3_c2 >= -78.2075
  SVFirst_c3_c4: tauS_c4 - tauD_c3 + 7.0 o_3 - 100.0 z_c3_c4 >= -78.98
  SVFirst_c3_c5: tauS_c5 - tauD_c3 + 7.0 o_3 - 100.0 z_c3_c5 >= -80.635
  SVFirst_c3_dN:  tauS_dN - tauD_c3 + 7.0 o_3 - 100.0 z_c3_dN >= -81.74
  SVFirst_c4_c1: tauS_c1 - tauD_c4 + 9.0 o_4 - 100.0 z_c4_c1 >= -79.645
  SVFirst_c4_c2: tauS_c2 - tauD_c4 + 9.0 o_4 - 100.0 z_c4_c2 >= -74.8375
  SVFirst_c4_c3: tauS_c3 - tauD_c4 + 9.0 o_4 - 100.0 z_c4_c3 >= -76.98
  SVFirst_c4_c5: tauS_c5 - tauD_c4 + 9.0 o_4 - 100.0 z_c4_c5 >= -80.6425
  SVFirst_c4_dN:  tauS_dN - tauD_c4 + 9.0 o_4 - 100.0 z_c4_dN >= -79.5175
  SVFirst_c5_c1: tauS_c1 - tauD_c5 + 6.0 o_5 - 100.0 z_c5_c1 >= -84.97
  SVFirst_c5_c2: tauS_c2 - tauD_c5 + 6.0 o_5 - 100.0 z_c5_c2 >= -80.0375
  SVFirst_c5_c3: tauS_c3 - tauD_c5 + 6.0 o_5 - 100.0 z_c5_c3 >= -81.635
  SVFirst_c5_c4: tauS_c4 - tauD_c5 + 6.0 o_5 - 100.0 z_c5_c4 >= -83.6425
  SVFirst_c5_dN:  tauS_dN - tauD_c5 + 6.0 o_5 - 100.0 z_c5_dN >= -84.75
  Precedence_Swap_c1:  p_1 - z_d0_c1 - z_c2_c1 - z_c3_c1 - z_c4_c1 - z_c5_c1 = 0
  Precedence_Swap_c2:  p_2 - z_d0_c2 - z_c1_c2 - z_c3_c2 - z_c4_c2 - z_c5_c2 = 0
  Precedence_Swap_c3:  p_3 - z_d0_c3 - z_c1_c3 - z_c2_c3 - z_c4_c3 - z_c5_c3 = 0
  Precedence_Swap_c4:  p_4 - z_d0_c4 - z_c1_c4 - z_c2_c4 - z_c3_c4 - z_c5_c4 = 0
  Precedence_Swap_c5:  p_5 - z_d0_c5 - z_c1_c5 - z_c2_c5 - z_c3_c5 - z_c4_c5 = 0
  Order_c1:  o_1 - p_1 <= 0
  Order_c2:  o_2 - p_2 <= 0
  Order_c3:  o_3 - p_3 <= 0
  Order_c4:  o_4 - p_4 <= 0
  Order_c5:  o_5 - p_5 <= 0
  WorkingTimeS_c1:  tauS_c1 <= 91.6475
  WorkingTimeS_c2:  tauS_c2 <= 86.615
  WorkingTimeS_c3:  tauS_c3 <= 88.74
  WorkingTimeS_c4:  tauS_c4 <= 88.5175
  WorkingTimeS_c5:  tauS_c5 <= 90.75
  FreightDV_c1_c2:  k_c2 - kDash_c1 - 10.0 p_1 + 10.0 x_c1_c2 + [ kDash_c1 * p_1 - kDash_c1 * o_1 + 10.0 p_1 * o_1 ] <= 10.0
  FreightDV_c1_c3:  k_c3 - kDash_c1 - 10.0 p_1 + 10.0 x_c1_c3 + [ kDash_c1 * p_1 - kDash_c1 * o_1 + 10.0 p_1 * o_1 ] <= 10.0
  FreightDV_c1_c4:  k_c4 - kDash_c1 - 10.0 p_1 + 10.0 x_c1_c4 + [ kDash_c1 * p_1 - kDash_c1 * o_1 + 10.0 p_1 * o_1 ] <= 10.0
  FreightDV_c1_c5:  k_c5 - kDash_c1 - 10.0 p_1 + 10.0 x_c1_c5 + [ kDash_c1 * p_1 - kDash_c1 * o_1 + 10.0 p_1 * o_1 ] <= 10.0
  FreightDV_c1_dN:  k_dN - kDash_c1 - 10.0 p_1 + 10.0 x_c1_dN + [ kDash_c1 * p_1 - kDash_c1 * o_1 + 10.0 p_1 * o_1 ] <= 10.0
  FreightDV_c1:  kDash_c1 - k_c1 - 10.0 o_1 + [ k_c1 * o_1 ] <= -4.0
  FreightDV_c2_c1:  k_c1 - kDash_c2 - 10.0 p_2 + 10.0 x_c2_c1 + [ kDash_c2 * p_2 - kDash_c2 * o_2 + 10.0 p_2 * o_2 ] <= 10.0
  FreightDV_c2_c3:  k_c3 - kDash_c2 - 10.0 p_2 + 10.0 x_c2_c3 + [ kDash_c2 * p_2 - kDash_c2 * o_2 + 10.0 p_2 * o_2 ] <= 10.0
  FreightDV_c2_c4:  k_c4 - kDash_c2 - 10.0 p_2 + 10.0 x_c2_c4 + [ kDash_c2 * p_2 - kDash_c2 * o_2 + 10.0 p_2 * o_2 ] <= 10.0
  FreightDV_c2_c5:  k_c5 - kDash_c2 - 10.0 p_2 + 10.0 x_c2_c5 + [ kDash_c2 * p_2 - kDash_c2 * o_2 + 10.0 p_2 * o_2 ] <= 10.0
  FreightDV_c2_dN:  k_dN - kDash_c2 - 10.0 p_2 + 10.0 x_c2_dN + [ kDash_c2 * p_2 - kDash_c2 * o_2 + 10.0 p_2 * o_2 ] <= 10.0
  FreightDV_c2:  kDash_c2 - k_c2 - 10.0 o_2 + [ k_c2 * o_2 ] <= -4.0
  FreightDV_c3_c1:  k_c1 - kDash_c3 - 10.0 p_3 + 10.0 x_c3_c1 + [ kDash_c3 * p_3 - kDash_c3 * o_3 + 10.0 p_3 * o_3 ] <= 10.0
  FreightDV_c3_c2:  k_c2 - kDash_c3 - 10.0 p_3 + 10.0 x_c3_c2 + [ kDash_c3 * p_3 - kDash_c3 * o_3 + 10.0 p_3 * o_3 ] <= 10.0
  FreightDV_c3_c4:  k_c4 - kDash_c3 - 10.0 p_3 + 10.0 x_c3_c4 + [ kDash_c3 * p_3 - kDash_c3 * o_3 + 10.0 p_3 * o_3 ] <= 10.0
  FreightDV_c3_c5:  k_c5 - kDash_c3 - 10.0 p_3 + 10.0 x_c3_c5 + [ kDash_c3 * p_3 - kDash_c3 * o_3 + 10.0 p_3 * o_3 ] <= 10.0
  FreightDV_c3_dN:  k_dN - kDash_c3 - 10.0 p_3 + 10.0 x_c3_dN + [ kDash_c3 * p_3 - kDash_c3 * o_3 + 10.0 p_3 * o_3 ] <= 10.0
  FreightDV_c3:  kDash_c3 - k_c3 - 10.0 o_3 + [ k_c3 * o_3 ] <= -5.0
  FreightDV_c4_c1:  k_c1 - kDash_c4 - 10.0 p_4 + 10.0 x_c4_c1 + [ kDash_c4 * p_4 - kDash_c4 * o_4 + 10.0 p_4 * o_4 ] <= 10.0
  FreightDV_c4_c2:  k_c2 - kDash_c4 - 10.0 p_4 + 10.0 x_c4_c2 + [ kDash_c4 * p_4 - kDash_c4 * o_4 + 10.0 p_4 * o_4 ] <= 10.0
  FreightDV_c4_c3:  k_c3 - kDash_c4 - 10.0 p_4 + 10.0 x_c4_c3 + [ kDash_c4 * p_4 - kDash_c4 * o_4 + 10.0 p_4 * o_4 ] <= 10.0
  FreightDV_c4_c5:  k_c5 - kDash_c4 - 10.0 p_4 + 10.0 x_c4_c5 + [ kDash_c4 * p_4 - kDash_c4 * o_4 + 10.0 p_4 * o_4 ] <= 10.0
  FreightDV_c4_dN:  k_dN - kDash_c4 - 10.0 p_4 + 10.0 x_c4_dN + [ kDash_c4 * p_4 - kDash_c4 * o_4 + 10.0 p_4 * o_4 ] <= 10.0
  FreightDV_c4:  kDash_c4 - k_c4 - 10.0 o_4 + [ k_c4 * o_4 ] <= -8.0
  FreightDV_c5_c1:  k_c1 - kDash_c5 - 10.0 p_5 + 10.0 x_c5_c1 + [ kDash_c5 * p_5 - kDash_c5 * o_5 + 10.0 p_5 * o_5 ] <= 10.0
  FreightDV_c5_c2:  k_c2 - kDash_c5 - 10.0 p_5 + 10.0 x_c5_c2 + [ kDash_c5 * p_5 - kDash_c5 * o_5 + 10.0 p_5 * o_5 ] <= 10.0
  FreightDV_c5_c3:  k_c3 - kDash_c5 - 10.0 p_5 + 10.0 x_c5_c3 + [ kDash_c5 * p_5 - kDash_c5 * o_5 + 10.0 p_5 * o_5 ] <= 10.0
  FreightDV_c5_c4:  k_c4 - kDash_c5 - 10.0 p_5 + 10.0 x_c5_c4 + [ kDash_c5 * p_5 - kDash_c5 * o_5 + 10.0 p_5 * o_5 ] <= 10.0
  FreightDV_c5_dN:  k_dN - kDash_c5 - 10.0 p_5 + 10.0 x_c5_dN + [ kDash_c5 * p_5 - kDash_c5 * o_5 + 10.0 p_5 * o_5 ] <= 10.0
  FreightDV_c5:  kDash_c5 - k_c5 - 10.0 o_5 + [ k_c5 * o_5 ] <= -6.0
  FreightSV_c1_c2:  pi_c2 - pi_c1 - kDash_c1 + 20.0 z_c1_c2 + [ kDash_c1 * o_1 - k_c1 * o_1 ] <= 10.0
  FreightSV_c1_c3:  pi_c3 - pi_c1 - kDash_c1 + 20.0 z_c1_c3 + [ kDash_c1 * o_1 - k_c1 * o_1 ] <= 10.0
  FreightSV_c1_c4:  pi_c4 - pi_c1 - kDash_c1 + 20.0 z_c1_c4 + [ kDash_c1 * o_1 - k_c1 * o_1 ] <= 10.0
  FreightSV_c1_c5:  pi_c5 - pi_c1 - kDash_c1 + 20.0 z_c1_c5 + [ kDash_c1 * o_1 - k_c1 * o_1 ] <= 10.0
  FreightSV_c1_dN:  pi_dN - pi_c1 - kDash_c1 + 20.0 z_c1_dN + [ kDash_c1 * o_1 - k_c1 * o_1 ] <= 10.0
  FreightSV_c2_c1:  pi_c1 - pi_c2 - kDash_c2 + 20.0 z_c2_c1 + [ kDash_c2 * o_2 - k_c2 * o_2 ] <= 10.0
  FreightSV_c2_c3:  pi_c3 - pi_c2 - kDash_c2 + 20.0 z_c2_c3 + [ kDash_c2 * o_2 - k_c2 * o_2 ] <= 10.0
  FreightSV_c2_c4:  pi_c4 - pi_c2 - kDash_c2 + 20.0 z_c2_c4 + [ kDash_c2 * o_2 - k_c2 * o_2 ] <= 10.0
  FreightSV_c2_c5:  pi_c5 - pi_c2 - kDash_c2 + 20.0 z_c2_c5 + [ kDash_c2 * o_2 - k_c2 * o_2 ] <= 10.0
  FreightSV_c2_dN:  pi_dN - pi_c2 - kDash_c2 + 20.0 z_c2_dN + [ kDash_c2 * o_2 - k_c2 * o_2 ] <= 10.0
  FreightSV_c3_c1:  pi_c1 - pi_c3 - kDash_c3 + 20.0 z_c3_c1 + [ kDash_c3 * o_3 - k_c3 * o_3 ] <= 10.0
  FreightSV_c3_c2:  pi_c2 - pi_c3 - kDash_c3 + 20.0 z_c3_c2 + [ kDash_c3 * o_3 - k_c3 * o_3 ] <= 10.0
  FreightSV_c3_c4:  pi_c4 - pi_c3 - kDash_c3 + 20.0 z_c3_c4 + [ kDash_c3 * o_3 - k_c3 * o_3 ] <= 10.0
  FreightSV_c3_c5:  pi_c5 - pi_c3 - kDash_c3 + 20.0 z_c3_c5 + [ kDash_c3 * o_3 - k_c3 * o_3 ] <= 10.0
  FreightSV_c3_dN:  pi_dN - pi_c3 - kDash_c3 + 20.0 z_c3_dN + [ kDash_c3 * o_3 - k_c3 * o_3 ] <= 10.0
  FreightSV_c4_c1:  pi_c1 - pi_c4 - kDash_c4 + 20.0 z_c4_c1 + [ kDash_c4 * o_4 - k_c4 * o_4 ] <= 10.0
  FreightSV_c4_c2:  pi_c2 - pi_c4 - kDash_c4 + 20.0 z_c4_c2 + [ kDash_c4 * o_4 - k_c4 * o_4 ] <= 10.0
  FreightSV_c4_c3:  pi_c3 - pi_c4 - kDash_c4 + 20.0 z_c4_c3 + [ kDash_c4 * o_4 - k_c4 * o_4 ] <= 10.0
  FreightSV_c4_c5:  pi_c5 - pi_c4 - kDash_c4 + 20.0 z_c4_c5 + [ kDash_c4 * o_4 - k_c4 * o_4 ] <= 10.0
  FreightSV_c4_dN:  pi_dN - pi_c4 - kDash_c4 + 20.0 z_c4_dN + [ kDash_c4 * o_4 - k_c4 * o_4 ] <= 10.0
  FreightSV_c5_c1:  pi_c1 - pi_c5 - kDash_c5 + 20.0 z_c5_c1 + [ kDash_c5 * o_5 - k_c5 * o_5 ] <= 10.0
  FreightSV_c5_c2:  pi_c2 - pi_c5 - kDash_c5 + 20.0 z_c5_c2 + [ kDash_c5 * o_5 - k_c5 * o_5 ] <= 10.0
  FreightSV_c5_c3:  pi_c3 - pi_c5 - kDash_c5 + 20.0 z_c5_c3 + [ kDash_c5 * o_5 - k_c5 * o_5 ] <= 10.0
  FreightSV_c5_c4:  pi_c4 - pi_c5 - kDash_c5 + 20.0 z_c5_c4 + [ kDash_c5 * o_5 - k_c5 * o_5 ] <= 10.0
  FreightSV_c5_dN:  pi_dN - pi_c5 - kDash_c5 + 20.0 z_c5_dN + [ kDash_c5 * o_5 - k_c5 * o_5 ] <= 10.0
  FuelDV_d0_c1:  phi_c1 - phi_d0 + 12.0943 x_d0_c1 <= 12.0
  FuelDV_d0_c2:  phi_c2 - phi_d0 + 13.441 x_d0_c2 <= 12.0
  FuelDV_d0_c3:  phi_c3 - phi_d0 + 12.8724 x_d0_c3 <= 12.0
  FuelDV_d0_c4:  phi_c4 - phi_d0 + 12.9319 x_d0_c4 <= 12.0
  FuelDV_d0_c5:  phi_c5 - phi_d0 + 12.3345 x_d0_c5 <= 12.0
  FuelDV_c1_c2:  phi_c2 - phi_c1 + 13.4062 x_c1_c2 <= 12.0
  FuelDV_c1_c3:  phi_c3 - phi_c1 + 12.9647 x_c1_c3 <= 12.0
  FuelDV_c1_c4:  phi_c4 - phi_c1 + 12.8978 x_c1_c4 <= 12.0
  FuelDV_c1_c5:  phi_c5 - phi_c1 + 12.2756 x_c1_c5 <= 12.0
  FuelDV_c1_dN:  phi_dN - phi_c1 + 12.0943 x_c1_dN <= 12.0
  FuelDV_c2_c1:  phi_c1 - phi_c2 + 13.4062 x_c2_c1 <= 12.0
  FuelDV_c2_c3:  phi_c3 - phi_c2 + 13.8177 x_c2_c3 <= 12.0
  FuelDV_c2_c4:  phi_c4 - phi_c2 + 14.1843 x_c2_c4 <= 12.0
  FuelDV_c2_c5:  phi_c5 - phi_c2 + 13.5956 x_c2_c5 <= 12.0
  FuelDV_c2_dN:  phi_dN - phi_c2 + 13.441 x_c2_dN <= 12.0
  FuelDV_c3_c1:  phi_c1 - phi_c3 + 12.9647 x_c3_c1 <= 12.0
  FuelDV_c3_c2:  phi_c2 - phi_c3 + 13.8177 x_c3_c2 <= 12.0
  FuelDV_c3_c4:  phi_c4 - phi_c3 + 13.611 x_c3_c4 <= 12.0
  FuelDV_c3_c5:  phi_c5 - phi_c3 + 13.168099999999999 x_c3_c5 <= 12.0
  FuelDV_c3_dN:  phi_dN - phi_c3 + 12.8724 x_c3_dN <= 12.0
  FuelDV_c4_c1:  phi_c1 - phi_c4 + 12.8978 x_c4_c1 <= 12.0
  FuelDV_c4_c2:  phi_c2 - phi_c4 + 14.1843 x_c4_c2 <= 12.0
  FuelDV_c4_c3:  phi_c3 - phi_c4 + 13.611 x_c4_c3 <= 12.0
  FuelDV_c4_c5:  phi_c5 - phi_c4 + 12.6309 x_c4_c5 <= 12.0
  FuelDV_c4_dN:  phi_dN - phi_c4 + 12.9319 x_c4_dN <= 12.0
  FuelDV_c5_c1:  phi_c1 - phi_c5 + 12.2756 x_c5_c1 <= 12.0
  FuelDV_c5_c2:  phi_c2 - phi_c5 + 13.5956 x_c5_c2 <= 12.0
  FuelDV_c5_c3:  phi_c3 - phi_c5 + 13.168099999999999 x_c5_c3 <= 12.0
  FuelDV_c5_c4:  phi_c4 - phi_c5 + 12.6309 x_c5_c4 <= 12.0
  FuelDV_c5_dN:  phi_dN - phi_c5 + 12.3345 x_c5_dN <= 12.0
  WorkingTimeD_c1:  tauD_c1 + 8.0 p_1 <= 96.6475
  WorkingTimeD_c2:  tauD_c2 + 8.0 p_2 <= 91.615
  WorkingTimeD_c3:  tauD_c3 + 8.0 p_3 <= 89.74
  WorkingTimeD_c4:  tauD_c4 + 8.0 p_4 <= 87.5175
  WorkingTimeD_c5:  tauD_c5 + 8.0 p_5 <= 92.75
Bounds
0 <= kDash_c1 <= 10.0
0 <= kDash_c2 <= 10.0
0 <= kDash_c3 <= 10.0
0 <= kDash_c4 <= 10.0
0 <= kDash_c5 <= 10.0
0 <= kDash_dN <= 10.0
0 <= k_c1 <= 10.0
0 <= k_c2 <= 10.0
0 <= k_c3 <= 10.0
0 <= k_c4 <= 10.0
0 <= k_c5 <= 10.0
0 <= k_dN <= 10.0
0 <= phi_c1 <= 12.0
0 <= phi_c2 <= 12.0
0 <= phi_c3 <= 12.0
0 <= phi_c4 <= 12.0
0 <= phi_c5 <= 12.0
0 <= phi_d0 <= 12.0
0 <= phi_dN <= 12.0
0 <= pi_c1 <= 50.0
0 <= pi_c2 <= 50.0
0 <= pi_c3 <= 50.0
0 <= pi_c4 <= 50.0
0 <= pi_c5 <= 50.0
0 <= pi_dN <= 50.0
0 <= tauD_c1 <= 100.0
0 <= tauD_c2 <= 100.0
0 <= tauD_c3 <= 100.0
0 <= tauD_c4 <= 100.0
0 <= tauD_c5 <= 100.0
0 <= tauD_d0 <= 100.0
0 <= tauD_dN <= 100.0
0 <= tauS_c1 <= 100.0
0 <= tauS_c2 <= 100.0
0 <= tauS_c3 <= 100.0
0 <= tauS_c4 <= 100.0
0 <= tauS_c5 <= 100.0
0 <= tauS_d0 <= 100.0
0 <= tauS_dN <= 100.0
Generals
  kDash_c1
  kDash_c2
  kDash_c3
  kDash_c4
  kDash_c5
  kDash_dN
  k_c1
  k_c2
  k_c3
  k_c4
  k_c5
  k_dN
  phi_c1
  phi_c2
  phi_c3
  phi_c4
  phi_c5
  phi_d0
  phi_dN
  pi_c1
  pi_c2
  pi_c3
  pi_c4
  pi_c5
  pi_dN
  tauD_c1
  tauD_c2
  tauD_c3
  tauD_c4
  tauD_c5
  tauD_d0
  tauD_dN
  tauS_c1
  tauS_c2
  tauS_c3
  tauS_c4
  tauS_c5
  tauS_d0
  tauS_dN
Binary
  o_1
  o_2
  o_3
  o_4
  o_5
  p_1
  p_2
  p_3
  p_4
  p_5
  x_c1_c2
  x_c1_c3
  x_c1_c4
  x_c1_c5
  x_c1_dN
  x_c2_c1
  x_c2_c3
  x_c2_c4
  x_c2_c5
  x_c2_dN
  x_c3_c1
  x_c3_c2
  x_c3_c4
  x_c3_c5
  x_c3_dN
  x_c4_c1
  x_c4_c2
  x_c4_c3
  x_c4_c5
  x_c4_dN
  x_c5_c1
  x_c5_c2
  x_c5_c3
  x_c5_c4
  x_c5_dN
  x_d0_c1
  x_d0_c2
  x_d0_c3
  x_d0_c4
  x_d0_c5
  z_c1_c2
  z_c1_c3
  z_c1_c4
  z_c1_c5
  z_c1_dN
  z_c2_c1
  z_c2_c3
  z_c2_c4
  z_c2_c5
  z_c2_dN
  z_c3_c1
  z_c3_c2
  z_c3_c4
  z_c3_c5
  z_c3_dN
  z_c4_c1
  z_c4_c2
  z_c4_c3
  z_c4_c5
  z_c4_dN
  z_c5_c1
  z_c5_c2
  z_c5_c3
  z_c5_c4
  z_c5_dN
  z_d0_c1
  z_d0_c2
  z_d0_c3
  z_d0_c4
  z_d0_c5
End
